;; ===================== PROJECTED CANON (QE) =====================
;; Each clause below is entailed by Proj = ∃W.F over the canonical vocabulary.
;; Units appear first for clarity; OR-clauses (SAT-filtered) follow.
;; ==================================================================

;; Additional OR-clauses (SAT-filtered)
(assert (or patient_has_finding_of_contraception_now (not patient_sex_is_female_now) (not patient_has_childbearing_potential_now)))
